WARNING: for repeatability, setting FPU to use double precision
============================[ Problem Statistics ]=============================
|                                                                             |
|  Number of variables:           275                                         |
|  Number of clauses:            1060                                         |
|  Parse time:                   0.00 s                                       |
|                                                                             |
============================[ Search Statistics ]==============================
| Conflicts |          ORIGINAL         |          LEARNT          | Progress |
|           |    Vars  Clauses Literals |    Limit  Clauses Lit/Cl |          |
===============================================================================
|       100 |     275     1060     3029 |      388      100      7 |  0.001 % |
|       250 |     263      980     2807 |      427      157      7 |  4.378 % |
===============================================================================
restarts              : 3
conflicts             : 282            (inf /sec)
decisions             : 365            (0.00 % random) (inf /sec)
propagations          : 14335          (inf /sec)
conflict literals     : 1716           (32.17 % deleted)
Memory used           : 19.00 MB
CPU time              : 0 s

UNSATISFIABLE
